34 34
21
3 3 31 19
4 3 30 31
5 3 0 19
6 3 7 25
7 3 0 25
8 3 22 31
9 3 0 28
10 3 0 22
11 3 23 22
12 3 19 19
13 3 10 22
14 3 5 19
21 3 13 25
22 3 0 31
25 3 9 28
34 3 0 16
4 4 30 12
5 4 11 12
11 4 0 12
14 4 16 12
34 12 0 0
